2360
1    1 2
2    1 4
3    1 7
4    1 9
5    1 13
6    1 15
7    1 18
8    1 20
9    1 25
10   1 27
11   1 30
12   1 32
13   1 36
14   1 38
15   1 41
16   1 43
17   1 49
18   1 51
19   1 54
20   1 56
21   1 60
22   1 62
23   1 65
24   1 67
25   1 72
26   1 74
27   1 77
28   1 79
29   1 83
30   1 85
31   1 88
32   1 90
33   1 97
34   1 99
35   1 102
36   1 104
37   1 108
38   1 110
39   1 113
40   1 115
41   1 120
42   1 122
43   1 125
44   1 127
45   1 131
46   1 133
47   1 136
48   1 138
49   1 144
50   1 146
51   1 149
52   1 151
53   1 155
54   1 157
55   1 160
56   1 162
57   1 167
58   1 169
59   1 172
60   1 174
61   1 178
62   1 180
63   1 183
64   1 185
65   2 3
66   2 6
67   2 8
68   2 12
69   2 14
70   2 17
71   2 19
72   2 24
73   2 26
74   2 29
75   2 31
76   2 35
77   2 37
78   2 40
79   2 42
80   2 48
81   2 50
82   2 53
83   2 55
84   2 59
85   2 61
86   2 64
87   2 66
88   2 71
89   2 73
90   2 76
91   2 78
92   2 82
93   2 84
94   2 87
95   2 89
96   2 96
97   2 98
98   2 101
99   2 103
100  2 107
101  2 109
102  2 112
103  2 114
104  2 119
105  2 121
106  2 124
107  2 126
108  2 130
109  2 132
110  2 135
111  2 137
112  2 143
113  2 145
114  2 148
115  2 150
116  2 154
117  2 156
118  2 159
119  2 161
120  2 166
121  2 168
122  2 171
123  2 173
124  2 177
125  2 179
126  2 182
127  2 184
128  3 5
129  3 7
130  3 10
131  3 13
132  3 16
133  3 18
134  3 21
135  3 25
136  3 28
137  3 30
138  3 33
139  3 36
140  3 39
141  3 41
142  3 44
143  3 49
144  3 52
145  3 54
146  3 57
147  3 60
148  3 63
149  3 65
150  3 68
151  3 72
152  3 75
153  3 77
154  3 80
155  3 83
156  3 86
157  3 88
158  3 91
159  3 97
160  3 100
161  3 102
162  3 105
163  3 108
164  3 111
165  3 113
166  3 116
167  3 120
168  3 123
169  3 125
170  3 128
171  3 131
172  3 134
173  3 136
174  3 139
175  3 144
176  3 147
177  3 149
178  3 152
179  3 155
180  3 158
181  3 160
182  3 163
183  3 167
184  3 170
185  3 172
186  3 175
187  3 178
188  3 181
189  3 183
190  3 186
191  4 5
192  4 6
193  4 10
194  4 12
195  4 16
196  4 17
197  4 21
198  4 24
199  4 28
200  4 29
201  4 33
202  4 35
203  4 39
204  4 40
205  4 44
206  4 48
207  4 52
208  4 53
209  4 57
210  4 59
211  4 63
212  4 64
213  4 68
214  4 71
215  4 75
216  4 76
217  4 80
218  4 82
219  4 86
220  4 87
221  4 91
222  4 96
223  4 100
224  4 101
225  4 105
226  4 107
227  4 111
228  4 112
229  4 116
230  4 119
231  4 123
232  4 124
233  4 128
234  4 130
235  4 134
236  4 135
237  4 139
238  4 143
239  4 147
240  4 148
241  4 152
242  4 154
243  4 158
244  4 159
245  4 163
246  4 166
247  4 170
248  4 171
249  4 175
250  4 177
251  4 181
252  4 182
253  4 186
254  5 8
255  5 9
256  5 14
257  5 15
258  5 19
259  5 20
260  5 26
261  5 27
262  5 31
263  5 32
264  5 37
265  5 38
266  5 42
267  5 43
268  5 50
269  5 51
270  5 55
271  5 56
272  5 61
273  5 62
274  5 66
275  5 67
276  5 73
277  5 74
278  5 78
279  5 79
280  5 84
281  5 85
282  5 89
283  5 90
284  5 98
285  5 99
286  5 103
287  5 104
288  5 109
289  5 110
290  5 114
291  5 115
292  5 121
293  5 122
294  5 126
295  5 127
296  5 132
297  5 133
298  5 137
299  5 138
300  5 145
301  5 146
302  5 150
303  5 151
304  5 156
305  5 157
306  5 161
307  5 162
308  5 168
309  5 169
310  5 173
311  5 174
312  5 179
313  5 180
314  5 184
315  5 185
316  6 11
317  6 13
318  6 15
319  6 22
320  6 25
321  6 27
322  6 34
323  6 36
324  6 38
325  6 45
326  6 49
327  6 51
328  6 58
329  6 60
330  6 62
331  6 69
332  6 72
333  6 74
334  6 81
335  6 83
336  6 85
337  6 92
338  6 97
339  6 99
340  6 106
341  6 108
342  6 110
343  6 117
344  6 120
345  6 122
346  6 129
347  6 131
348  6 133
349  6 140
350  6 144
351  6 146
352  6 153
353  6 155
354  6 157
355  6 164
356  6 167
357  6 169
358  6 176
359  6 178
360  6 180
361  6 187
362  7 11
363  7 12
364  7 14
365  7 22
366  7 24
367  7 26
368  7 34
369  7 35
370  7 37
371  7 45
372  7 48
373  7 50
374  7 58
375  7 59
376  7 61
377  7 69
378  7 71
379  7 73
380  7 81
381  7 82
382  7 84
383  7 92
384  7 96
385  7 98
386  7 106
387  7 107
388  7 109
389  7 117
390  7 119
391  7 121
392  7 129
393  7 130
394  7 132
395  7 140
396  7 143
397  7 145
398  7 153
399  7 154
400  7 156
401  7 164
402  7 166
403  7 168
404  7 176
405  7 177
406  7 179
407  7 187
408  8 11
409  8 13
410  8 16
411  8 22
412  8 25
413  8 28
414  8 34
415  8 36
416  8 39
417  8 45
418  8 49
419  8 52
420  8 58
421  8 60
422  8 63
423  8 69
424  8 72
425  8 75
426  8 81
427  8 83
428  8 86
429  8 92
430  8 97
431  8 100
432  8 106
433  8 108
434  8 111
435  8 117
436  8 120
437  8 123
438  8 129
439  8 131
440  8 134
441  8 140
442  8 144
443  8 147
444  8 153
445  8 155
446  8 158
447  8 164
448  8 167
449  8 170
450  8 176
451  8 178
452  8 181
453  8 187
454  9 11
455  9 12
456  9 16
457  9 22
458  9 24
459  9 28
460  9 34
461  9 35
462  9 39
463  9 45
464  9 48
465  9 52
466  9 58
467  9 59
468  9 63
469  9 69
470  9 71
471  9 75
472  9 81
473  9 82
474  9 86
475  9 92
476  9 96
477  9 100
478  9 106
479  9 107
480  9 111
481  9 117
482  9 119
483  9 123
484  9 129
485  9 130
486  9 134
487  9 140
488  9 143
489  9 147
490  9 153
491  9 154
492  9 158
493  9 164
494  9 166
495  9 170
496  9 176
497  9 177
498  9 181
499  9 187
500  10 11
501  10 14
502  10 15
503  10 22
504  10 26
505  10 27
506  10 34
507  10 37
508  10 38
509  10 45
510  10 50
511  10 51
512  10 58
513  10 61
514  10 62
515  10 69
516  10 73
517  10 74
518  10 81
519  10 84
520  10 85
521  10 92
522  10 98
523  10 99
524  10 106
525  10 109
526  10 110
527  10 117
528  10 121
529  10 122
530  10 129
531  10 132
532  10 133
533  10 140
534  10 145
535  10 146
536  10 153
537  10 156
538  10 157
539  10 164
540  10 168
541  10 169
542  10 176
543  10 179
544  10 180
545  10 187
546  11 17
547  11 18
548  11 19
549  11 20
550  11 21
551  11 29
552  11 30
553  11 31
554  11 32
555  11 33
556  11 40
557  11 41
558  11 42
559  11 43
560  11 44
561  11 53
562  11 54
563  11 55
564  11 56
565  11 57
566  11 64
567  11 65
568  11 66
569  11 67
570  11 68
571  11 76
572  11 77
573  11 78
574  11 79
575  11 80
576  11 87
577  11 88
578  11 89
579  11 90
580  11 91
581  11 101
582  11 102
583  11 103
584  11 104
585  11 105
586  11 112
587  11 113
588  11 114
589  11 115
590  11 116
591  11 124
592  11 125
593  11 126
594  11 127
595  11 128
596  11 135
597  11 136
598  11 137
599  11 138
600  11 139
601  11 148
602  11 149
603  11 150
604  11 151
605  11 152
606  11 159
607  11 160
608  11 161
609  11 162
610  11 163
611  11 171
612  11 172
613  11 173
614  11 174
615  11 175
616  11 182
617  11 183
618  11 184
619  11 185
620  11 186
621  12 23
622  12 25
623  12 27
624  12 30
625  12 32
626  12 46
627  12 49
628  12 51
629  12 54
630  12 56
631  12 70
632  12 72
633  12 74
634  12 77
635  12 79
636  12 93
637  12 97
638  12 99
639  12 102
640  12 104
641  12 118
642  12 120
643  12 122
644  12 125
645  12 127
646  12 141
647  12 144
648  12 146
649  12 149
650  12 151
651  12 165
652  12 167
653  12 169
654  12 172
655  12 174
656  12 188
657  13 23
658  13 24
659  13 26
660  13 29
661  13 31
662  13 46
663  13 48
664  13 50
665  13 53
666  13 55
667  13 70
668  13 71
669  13 73
670  13 76
671  13 78
672  13 93
673  13 96
674  13 98
675  13 101
676  13 103
677  13 118
678  13 119
679  13 121
680  13 124
681  13 126
682  13 141
683  13 143
684  13 145
685  13 148
686  13 150
687  13 165
688  13 166
689  13 168
690  13 171
691  13 173
692  13 188
693  14 23
694  14 25
695  14 28
696  14 30
697  14 33
698  14 46
699  14 49
700  14 52
701  14 54
702  14 57
703  14 70
704  14 72
705  14 75
706  14 77
707  14 80
708  14 93
709  14 97
710  14 100
711  14 102
712  14 105
713  14 118
714  14 120
715  14 123
716  14 125
717  14 128
718  14 141
719  14 144
720  14 147
721  14 149
722  14 152
723  14 165
724  14 167
725  14 170
726  14 172
727  14 175
728  14 188
729  15 23
730  15 24
731  15 28
732  15 29
733  15 33
734  15 46
735  15 48
736  15 52
737  15 53
738  15 57
739  15 70
740  15 71
741  15 75
742  15 76
743  15 80
744  15 93
745  15 96
746  15 100
747  15 101
748  15 105
749  15 118
750  15 119
751  15 123
752  15 124
753  15 128
754  15 141
755  15 143
756  15 147
757  15 148
758  15 152
759  15 165
760  15 166
761  15 170
762  15 171
763  15 175
764  15 188
765  16 23
766  16 26
767  16 27
768  16 31
769  16 32
770  16 46
771  16 50
772  16 51
773  16 55
774  16 56
775  16 70
776  16 73
777  16 74
778  16 78
779  16 79
780  16 93
781  16 98
782  16 99
783  16 103
784  16 104
785  16 118
786  16 121
787  16 122
788  16 126
789  16 127
790  16 141
791  16 145
792  16 146
793  16 150
794  16 151
795  16 165
796  16 168
797  16 169
798  16 173
799  16 174
800  16 188
801  17 23
802  17 25
803  17 27
804  17 34
805  17 46
806  17 49
807  17 51
808  17 58
809  17 70
810  17 72
811  17 74
812  17 81
813  17 93
814  17 97
815  17 99
816  17 106
817  17 118
818  17 120
819  17 122
820  17 129
821  17 141
822  17 144
823  17 146
824  17 153
825  17 165
826  17 167
827  17 169
828  17 176
829  17 188
830  18 23
831  18 24
832  18 26
833  18 34
834  18 46
835  18 48
836  18 50
837  18 58
838  18 70
839  18 71
840  18 73
841  18 81
842  18 93
843  18 96
844  18 98
845  18 106
846  18 118
847  18 119
848  18 121
849  18 129
850  18 141
851  18 143
852  18 145
853  18 153
854  18 165
855  18 166
856  18 168
857  18 176
858  18 188
859  19 23
860  19 25
861  19 28
862  19 34
863  19 46
864  19 49
865  19 52
866  19 58
867  19 70
868  19 72
869  19 75
870  19 81
871  19 93
872  19 97
873  19 100
874  19 106
875  19 118
876  19 120
877  19 123
878  19 129
879  19 141
880  19 144
881  19 147
882  19 153
883  19 165
884  19 167
885  19 170
886  19 176
887  19 188
888  20 23
889  20 24
890  20 28
891  20 34
892  20 46
893  20 48
894  20 52
895  20 58
896  20 70
897  20 71
898  20 75
899  20 81
900  20 93
901  20 96
902  20 100
903  20 106
904  20 118
905  20 119
906  20 123
907  20 129
908  20 141
909  20 143
910  20 147
911  20 153
912  20 165
913  20 166
914  20 170
915  20 176
916  20 188
917  21 23
918  21 26
919  21 27
920  21 34
921  21 46
922  21 50
923  21 51
924  21 58
925  21 70
926  21 73
927  21 74
928  21 81
929  21 93
930  21 98
931  21 99
932  21 106
933  21 118
934  21 121
935  21 122
936  21 129
937  21 141
938  21 145
939  21 146
940  21 153
941  21 165
942  21 168
943  21 169
944  21 176
945  21 188
946  22 23
947  22 29
948  22 30
949  22 31
950  22 32
951  22 33
952  22 46
953  22 53
954  22 54
955  22 55
956  22 56
957  22 57
958  22 70
959  22 76
960  22 77
961  22 78
962  22 79
963  22 80
964  22 93
965  22 101
966  22 102
967  22 103
968  22 104
969  22 105
970  22 118
971  22 124
972  22 125
973  22 126
974  22 127
975  22 128
976  22 141
977  22 148
978  22 149
979  22 150
980  22 151
981  22 152
982  22 165
983  22 171
984  22 172
985  22 173
986  22 174
987  22 175
988  22 188
989  23 35
990  23 36
991  23 37
992  23 38
993  23 39
994  23 40
995  23 41
996  23 42
997  23 43
998  23 44
999  23 45
1000 23 59
1001 23 60
1002 23 61
1003 23 62
1004 23 63
1005 23 64
1006 23 65
1007 23 66
1008 23 67
1009 23 68
1010 23 69
1011 23 82
1012 23 83
1013 23 84
1014 23 85
1015 23 86
1016 23 87
1017 23 88
1018 23 89
1019 23 90
1020 23 91
1021 23 92
1022 23 107
1023 23 108
1024 23 109
1025 23 110
1026 23 111
1027 23 112
1028 23 113
1029 23 114
1030 23 115
1031 23 116
1032 23 117
1033 23 130
1034 23 131
1035 23 132
1036 23 133
1037 23 134
1038 23 135
1039 23 136
1040 23 137
1041 23 138
1042 23 139
1043 23 140
1044 23 154
1045 23 155
1046 23 156
1047 23 157
1048 23 158
1049 23 159
1050 23 160
1051 23 161
1052 23 162
1053 23 163
1054 23 164
1055 23 177
1056 23 178
1057 23 179
1058 23 180
1059 23 181
1060 23 182
1061 23 183
1062 23 184
1063 23 185
1064 23 186
1065 23 187
1066 24 47
1067 24 49
1068 24 51
1069 24 54
1070 24 56
1071 24 60
1072 24 62
1073 24 65
1074 24 67
1075 24 94
1076 24 97
1077 24 99
1078 24 102
1079 24 104
1080 24 108
1081 24 110
1082 24 113
1083 24 115
1084 24 142
1085 24 144
1086 24 146
1087 24 149
1088 24 151
1089 24 155
1090 24 157
1091 24 160
1092 24 162
1093 24 189
1094 25 47
1095 25 48
1096 25 50
1097 25 53
1098 25 55
1099 25 59
1100 25 61
1101 25 64
1102 25 66
1103 25 94
1104 25 96
1105 25 98
1106 25 101
1107 25 103
1108 25 107
1109 25 109
1110 25 112
1111 25 114
1112 25 142
1113 25 143
1114 25 145
1115 25 148
1116 25 150
1117 25 154
1118 25 156
1119 25 159
1120 25 161
1121 25 189
1122 26 47
1123 26 49
1124 26 52
1125 26 54
1126 26 57
1127 26 60
1128 26 63
1129 26 65
1130 26 68
1131 26 94
1132 26 97
1133 26 100
1134 26 102
1135 26 105
1136 26 108
1137 26 111
1138 26 113
1139 26 116
1140 26 142
1141 26 144
1142 26 147
1143 26 149
1144 26 152
1145 26 155
1146 26 158
1147 26 160
1148 26 163
1149 26 189
1150 27 47
1151 27 48
1152 27 52
1153 27 53
1154 27 57
1155 27 59
1156 27 63
1157 27 64
1158 27 68
1159 27 94
1160 27 96
1161 27 100
1162 27 101
1163 27 105
1164 27 107
1165 27 111
1166 27 112
1167 27 116
1168 27 142
1169 27 143
1170 27 147
1171 27 148
1172 27 152
1173 27 154
1174 27 158
1175 27 159
1176 27 163
1177 27 189
1178 28 47
1179 28 50
1180 28 51
1181 28 55
1182 28 56
1183 28 61
1184 28 62
1185 28 66
1186 28 67
1187 28 94
1188 28 98
1189 28 99
1190 28 103
1191 28 104
1192 28 109
1193 28 110
1194 28 114
1195 28 115
1196 28 142
1197 28 145
1198 28 146
1199 28 150
1200 28 151
1201 28 156
1202 28 157
1203 28 161
1204 28 162
1205 28 189
1206 29 47
1207 29 49
1208 29 51
1209 29 58
1210 29 60
1211 29 62
1212 29 69
1213 29 94
1214 29 97
1215 29 99
1216 29 106
1217 29 108
1218 29 110
1219 29 117
1220 29 142
1221 29 144
1222 29 146
1223 29 153
1224 29 155
1225 29 157
1226 29 164
1227 29 189
1228 30 47
1229 30 48
1230 30 50
1231 30 58
1232 30 59
1233 30 61
1234 30 69
1235 30 94
1236 30 96
1237 30 98
1238 30 106
1239 30 107
1240 30 109
1241 30 117
1242 30 142
1243 30 143
1244 30 145
1245 30 153
1246 30 154
1247 30 156
1248 30 164
1249 30 189
1250 31 47
1251 31 49
1252 31 52
1253 31 58
1254 31 60
1255 31 63
1256 31 69
1257 31 94
1258 31 97
1259 31 100
1260 31 106
1261 31 108
1262 31 111
1263 31 117
1264 31 142
1265 31 144
1266 31 147
1267 31 153
1268 31 155
1269 31 158
1270 31 164
1271 31 189
1272 32 47
1273 32 48
1274 32 52
1275 32 58
1276 32 59
1277 32 63
1278 32 69
1279 32 94
1280 32 96
1281 32 100
1282 32 106
1283 32 107
1284 32 111
1285 32 117
1286 32 142
1287 32 143
1288 32 147
1289 32 153
1290 32 154
1291 32 158
1292 32 164
1293 32 189
1294 33 47
1295 33 50
1296 33 51
1297 33 58
1298 33 61
1299 33 62
1300 33 69
1301 33 94
1302 33 98
1303 33 99
1304 33 106
1305 33 109
1306 33 110
1307 33 117
1308 33 142
1309 33 145
1310 33 146
1311 33 153
1312 33 156
1313 33 157
1314 33 164
1315 33 189
1316 34 47
1317 34 53
1318 34 54
1319 34 55
1320 34 56
1321 34 57
1322 34 64
1323 34 65
1324 34 66
1325 34 67
1326 34 68
1327 34 94
1328 34 101
1329 34 102
1330 34 103
1331 34 104
1332 34 105
1333 34 112
1334 34 113
1335 34 114
1336 34 115
1337 34 116
1338 34 142
1339 34 148
1340 34 149
1341 34 150
1342 34 151
1343 34 152
1344 34 159
1345 34 160
1346 34 161
1347 34 162
1348 34 163
1349 34 189
1350 35 47
1351 35 49
1352 35 51
1353 35 54
1354 35 56
1355 35 70
1356 35 94
1357 35 97
1358 35 99
1359 35 102
1360 35 104
1361 35 118
1362 35 142
1363 35 144
1364 35 146
1365 35 149
1366 35 151
1367 35 165
1368 35 189
1369 36 47
1370 36 48
1371 36 50
1372 36 53
1373 36 55
1374 36 70
1375 36 94
1376 36 96
1377 36 98
1378 36 101
1379 36 103
1380 36 118
1381 36 142
1382 36 143
1383 36 145
1384 36 148
1385 36 150
1386 36 165
1387 36 189
1388 37 47
1389 37 49
1390 37 52
1391 37 54
1392 37 57
1393 37 70
1394 37 94
1395 37 97
1396 37 100
1397 37 102
1398 37 105
1399 37 118
1400 37 142
1401 37 144
1402 37 147
1403 37 149
1404 37 152
1405 37 165
1406 37 189
1407 38 47
1408 38 48
1409 38 52
1410 38 53
1411 38 57
1412 38 70
1413 38 94
1414 38 96
1415 38 100
1416 38 101
1417 38 105
1418 38 118
1419 38 142
1420 38 143
1421 38 147
1422 38 148
1423 38 152
1424 38 165
1425 38 189
1426 39 47
1427 39 50
1428 39 51
1429 39 55
1430 39 56
1431 39 70
1432 39 94
1433 39 98
1434 39 99
1435 39 103
1436 39 104
1437 39 118
1438 39 142
1439 39 145
1440 39 146
1441 39 150
1442 39 151
1443 39 165
1444 39 189
1445 40 47
1446 40 49
1447 40 51
1448 40 58
1449 40 70
1450 40 94
1451 40 97
1452 40 99
1453 40 106
1454 40 118
1455 40 142
1456 40 144
1457 40 146
1458 40 153
1459 40 165
1460 40 189
1461 41 47
1462 41 48
1463 41 50
1464 41 58
1465 41 70
1466 41 94
1467 41 96
1468 41 98
1469 41 106
1470 41 118
1471 41 142
1472 41 143
1473 41 145
1474 41 153
1475 41 165
1476 41 189
1477 42 47
1478 42 49
1479 42 52
1480 42 58
1481 42 70
1482 42 94
1483 42 97
1484 42 100
1485 42 106
1486 42 118
1487 42 142
1488 42 144
1489 42 147
1490 42 153
1491 42 165
1492 42 189
1493 43 47
1494 43 48
1495 43 52
1496 43 58
1497 43 70
1498 43 94
1499 43 96
1500 43 100
1501 43 106
1502 43 118
1503 43 142
1504 43 143
1505 43 147
1506 43 153
1507 43 165
1508 43 189
1509 44 47
1510 44 50
1511 44 51
1512 44 58
1513 44 70
1514 44 94
1515 44 98
1516 44 99
1517 44 106
1518 44 118
1519 44 142
1520 44 145
1521 44 146
1522 44 153
1523 44 165
1524 44 189
1525 45 47
1526 45 53
1527 45 54
1528 45 55
1529 45 56
1530 45 57
1531 45 70
1532 45 94
1533 45 101
1534 45 102
1535 45 103
1536 45 104
1537 45 105
1538 45 118
1539 45 142
1540 45 148
1541 45 149
1542 45 150
1543 45 151
1544 45 152
1545 45 165
1546 45 189
1547 46 47
1548 46 59
1549 46 60
1550 46 61
1551 46 62
1552 46 63
1553 46 64
1554 46 65
1555 46 66
1556 46 67
1557 46 68
1558 46 69
1559 46 94
1560 46 107
1561 46 108
1562 46 109
1563 46 110
1564 46 111
1565 46 112
1566 46 113
1567 46 114
1568 46 115
1569 46 116
1570 46 117
1571 46 142
1572 46 154
1573 46 155
1574 46 156
1575 46 157
1576 46 158
1577 46 159
1578 46 160
1579 46 161
1580 46 162
1581 46 163
1582 46 164
1583 46 189
1584 47 71
1585 47 72
1586 47 73
1587 47 74
1588 47 75
1589 47 76
1590 47 77
1591 47 78
1592 47 79
1593 47 80
1594 47 81
1595 47 82
1596 47 83
1597 47 84
1598 47 85
1599 47 86
1600 47 87
1601 47 88
1602 47 89
1603 47 90
1604 47 91
1605 47 92
1606 47 93
1607 47 119
1608 47 120
1609 47 121
1610 47 122
1611 47 123
1612 47 124
1613 47 125
1614 47 126
1615 47 127
1616 47 128
1617 47 129
1618 47 130
1619 47 131
1620 47 132
1621 47 133
1622 47 134
1623 47 135
1624 47 136
1625 47 137
1626 47 138
1627 47 139
1628 47 140
1629 47 141
1630 47 166
1631 47 167
1632 47 168
1633 47 169
1634 47 170
1635 47 171
1636 47 172
1637 47 173
1638 47 174
1639 47 175
1640 47 176
1641 47 177
1642 47 178
1643 47 179
1644 47 180
1645 47 181
1646 47 182
1647 47 183
1648 47 184
1649 47 185
1650 47 186
1651 47 187
1652 47 188
1653 48 95
1654 48 97
1655 48 99
1656 48 102
1657 48 104
1658 48 108
1659 48 110
1660 48 113
1661 48 115
1662 48 120
1663 48 122
1664 48 125
1665 48 127
1666 48 131
1667 48 133
1668 48 136
1669 48 138
1670 48 190
1671 49 95
1672 49 96
1673 49 98
1674 49 101
1675 49 103
1676 49 107
1677 49 109
1678 49 112
1679 49 114
1680 49 119
1681 49 121
1682 49 124
1683 49 126
1684 49 130
1685 49 132
1686 49 135
1687 49 137
1688 49 190
1689 50 95
1690 50 97
1691 50 100
1692 50 102
1693 50 105
1694 50 108
1695 50 111
1696 50 113
1697 50 116
1698 50 120
1699 50 123
1700 50 125
1701 50 128
1702 50 131
1703 50 134
1704 50 136
1705 50 139
1706 50 190
1707 51 95
1708 51 96
1709 51 100
1710 51 101
1711 51 105
1712 51 107
1713 51 111
1714 51 112
1715 51 116
1716 51 119
1717 51 123
1718 51 124
1719 51 128
1720 51 130
1721 51 134
1722 51 135
1723 51 139
1724 51 190
1725 52 95
1726 52 98
1727 52 99
1728 52 103
1729 52 104
1730 52 109
1731 52 110
1732 52 114
1733 52 115
1734 52 121
1735 52 122
1736 52 126
1737 52 127
1738 52 132
1739 52 133
1740 52 137
1741 52 138
1742 52 190
1743 53 95
1744 53 97
1745 53 99
1746 53 106
1747 53 108
1748 53 110
1749 53 117
1750 53 120
1751 53 122
1752 53 129
1753 53 131
1754 53 133
1755 53 140
1756 53 190
1757 54 95
1758 54 96
1759 54 98
1760 54 106
1761 54 107
1762 54 109
1763 54 117
1764 54 119
1765 54 121
1766 54 129
1767 54 130
1768 54 132
1769 54 140
1770 54 190
1771 55 95
1772 55 97
1773 55 100
1774 55 106
1775 55 108
1776 55 111
1777 55 117
1778 55 120
1779 55 123
1780 55 129
1781 55 131
1782 55 134
1783 55 140
1784 55 190
1785 56 95
1786 56 96
1787 56 100
1788 56 106
1789 56 107
1790 56 111
1791 56 117
1792 56 119
1793 56 123
1794 56 129
1795 56 130
1796 56 134
1797 56 140
1798 56 190
1799 57 95
1800 57 98
1801 57 99
1802 57 106
1803 57 109
1804 57 110
1805 57 117
1806 57 121
1807 57 122
1808 57 129
1809 57 132
1810 57 133
1811 57 140
1812 57 190
1813 58 95
1814 58 101
1815 58 102
1816 58 103
1817 58 104
1818 58 105
1819 58 112
1820 58 113
1821 58 114
1822 58 115
1823 58 116
1824 58 124
1825 58 125
1826 58 126
1827 58 127
1828 58 128
1829 58 135
1830 58 136
1831 58 137
1832 58 138
1833 58 139
1834 58 190
1835 59 95
1836 59 97
1837 59 99
1838 59 102
1839 59 104
1840 59 118
1841 59 120
1842 59 122
1843 59 125
1844 59 127
1845 59 141
1846 59 190
1847 60 95
1848 60 96
1849 60 98
1850 60 101
1851 60 103
1852 60 118
1853 60 119
1854 60 121
1855 60 124
1856 60 126
1857 60 141
1858 60 190
1859 61 95
1860 61 97
1861 61 100
1862 61 102
1863 61 105
1864 61 118
1865 61 120
1866 61 123
1867 61 125
1868 61 128
1869 61 141
1870 61 190
1871 62 95
1872 62 96
1873 62 100
1874 62 101
1875 62 105
1876 62 118
1877 62 119
1878 62 123
1879 62 124
1880 62 128
1881 62 141
1882 62 190
1883 63 95
1884 63 98
1885 63 99
1886 63 103
1887 63 104
1888 63 118
1889 63 121
1890 63 122
1891 63 126
1892 63 127
1893 63 141
1894 63 190
1895 64 95
1896 64 97
1897 64 99
1898 64 106
1899 64 118
1900 64 120
1901 64 122
1902 64 129
1903 64 141
1904 64 190
1905 65 95
1906 65 96
1907 65 98
1908 65 106
1909 65 118
1910 65 119
1911 65 121
1912 65 129
1913 65 141
1914 65 190
1915 66 95
1916 66 97
1917 66 100
1918 66 106
1919 66 118
1920 66 120
1921 66 123
1922 66 129
1923 66 141
1924 66 190
1925 67 95
1926 67 96
1927 67 100
1928 67 106
1929 67 118
1930 67 119
1931 67 123
1932 67 129
1933 67 141
1934 67 190
1935 68 95
1936 68 98
1937 68 99
1938 68 106
1939 68 118
1940 68 121
1941 68 122
1942 68 129
1943 68 141
1944 68 190
1945 69 95
1946 69 101
1947 69 102
1948 69 103
1949 69 104
1950 69 105
1951 69 118
1952 69 124
1953 69 125
1954 69 126
1955 69 127
1956 69 128
1957 69 141
1958 69 190
1959 70 95
1960 70 107
1961 70 108
1962 70 109
1963 70 110
1964 70 111
1965 70 112
1966 70 113
1967 70 114
1968 70 115
1969 70 116
1970 70 117
1971 70 130
1972 70 131
1973 70 132
1974 70 133
1975 70 134
1976 70 135
1977 70 136
1978 70 137
1979 70 138
1980 70 139
1981 70 140
1982 70 190
1983 71 95
1984 71 97
1985 71 99
1986 71 102
1987 71 104
1988 71 108
1989 71 110
1990 71 113
1991 71 115
1992 71 142
1993 71 190
1994 72 95
1995 72 96
1996 72 98
1997 72 101
1998 72 103
1999 72 107
2000 72 109
2001 72 112
2002 72 114
2003 72 142
2004 72 190
2005 73 95
2006 73 97
2007 73 100
2008 73 102
2009 73 105
2010 73 108
2011 73 111
2012 73 113
2013 73 116
2014 73 142
2015 73 190
2016 74 95
2017 74 96
2018 74 100
2019 74 101
2020 74 105
2021 74 107
2022 74 111
2023 74 112
2024 74 116
2025 74 142
2026 74 190
2027 75 95
2028 75 98
2029 75 99
2030 75 103
2031 75 104
2032 75 109
2033 75 110
2034 75 114
2035 75 115
2036 75 142
2037 75 190
2038 76 95
2039 76 97
2040 76 99
2041 76 106
2042 76 108
2043 76 110
2044 76 117
2045 76 142
2046 76 190
2047 77 95
2048 77 96
2049 77 98
2050 77 106
2051 77 107
2052 77 109
2053 77 117
2054 77 142
2055 77 190
2056 78 95
2057 78 97
2058 78 100
2059 78 106
2060 78 108
2061 78 111
2062 78 117
2063 78 142
2064 78 190
2065 79 95
2066 79 96
2067 79 100
2068 79 106
2069 79 107
2070 79 111
2071 79 117
2072 79 142
2073 79 190
2074 80 95
2075 80 98
2076 80 99
2077 80 106
2078 80 109
2079 80 110
2080 80 117
2081 80 142
2082 80 190
2083 81 95
2084 81 101
2085 81 102
2086 81 103
2087 81 104
2088 81 105
2089 81 112
2090 81 113
2091 81 114
2092 81 115
2093 81 116
2094 81 142
2095 81 190
2096 82 95
2097 82 97
2098 82 99
2099 82 102
2100 82 104
2101 82 118
2102 82 142
2103 82 190
2104 83 95
2105 83 96
2106 83 98
2107 83 101
2108 83 103
2109 83 118
2110 83 142
2111 83 190
2112 84 95
2113 84 97
2114 84 100
2115 84 102
2116 84 105
2117 84 118
2118 84 142
2119 84 190
2120 85 95
2121 85 96
2122 85 100
2123 85 101
2124 85 105
2125 85 118
2126 85 142
2127 85 190
2128 86 95
2129 86 98
2130 86 99
2131 86 103
2132 86 104
2133 86 118
2134 86 142
2135 86 190
2136 87 95
2137 87 97
2138 87 99
2139 87 106
2140 87 118
2141 87 142
2142 87 190
2143 88 95
2144 88 96
2145 88 98
2146 88 106
2147 88 118
2148 88 142
2149 88 190
2150 89 95
2151 89 97
2152 89 100
2153 89 106
2154 89 118
2155 89 142
2156 89 190
2157 90 95
2158 90 96
2159 90 100
2160 90 106
2161 90 118
2162 90 142
2163 90 190
2164 91 95
2165 91 98
2166 91 99
2167 91 106
2168 91 118
2169 91 142
2170 91 190
2171 92 95
2172 92 101
2173 92 102
2174 92 103
2175 92 104
2176 92 105
2177 92 118
2178 92 142
2179 92 190
2180 93 95
2181 93 107
2182 93 108
2183 93 109
2184 93 110
2185 93 111
2186 93 112
2187 93 113
2188 93 114
2189 93 115
2190 93 116
2191 93 117
2192 93 142
2193 93 190
2194 94 95
2195 94 119
2196 94 120
2197 94 121
2198 94 122
2199 94 123
2200 94 124
2201 94 125
2202 94 126
2203 94 127
2204 94 128
2205 94 129
2206 94 130
2207 94 131
2208 94 132
2209 94 133
2210 94 134
2211 94 135
2212 94 136
2213 94 137
2214 94 138
2215 94 139
2216 94 140
2217 94 141
2218 94 190
2219 95 143
2220 95 144
2221 95 145
2222 95 146
2223 95 147
2224 95 148
2225 95 149
2226 95 150
2227 95 151
2228 95 152
2229 95 153
2230 95 154
2231 95 155
2232 95 156
2233 95 157
2234 95 158
2235 95 159
2236 95 160
2237 95 161
2238 95 162
2239 95 163
2240 95 164
2241 95 165
2242 95 166
2243 95 167
2244 95 168
2245 95 169
2246 95 170
2247 95 171
2248 95 172
2249 95 173
2250 95 174
2251 95 175
2252 95 176
2253 95 177
2254 95 178
2255 95 179
2256 95 180
2257 95 181
2258 95 182
2259 95 183
2260 95 184
2261 95 185
2262 95 186
2263 95 187
2264 95 188
2265 95 189
2266 96 191
2267 97 191
2268 98 191
2269 99 191
2270 100 191
2271 101 191
2272 102 191
2273 103 191
2274 104 191
2275 105 191
2276 106 191
2277 107 191
2278 108 191
2279 109 191
2280 110 191
2281 111 191
2282 112 191
2283 113 191
2284 114 191
2285 115 191
2286 116 191
2287 117 191
2288 118 191
2289 119 191
2290 120 191
2291 121 191
2292 122 191
2293 123 191
2294 124 191
2295 125 191
2296 126 191
2297 127 191
2298 128 191
2299 129 191
2300 130 191
2301 131 191
2302 132 191
2303 133 191
2304 134 191
2305 135 191
2306 136 191
2307 137 191
2308 138 191
2309 139 191
2310 140 191
2311 141 191
2312 142 191
2313 143 191
2314 144 191
2315 145 191
2316 146 191
2317 147 191
2318 148 191
2319 149 191
2320 150 191
2321 151 191
2322 152 191
2323 153 191
2324 154 191
2325 155 191
2326 156 191
2327 157 191
2328 158 191
2329 159 191
2330 160 191
2331 161 191
2332 162 191
2333 163 191
2334 164 191
2335 165 191
2336 166 191
2337 167 191
2338 168 191
2339 169 191
2340 170 191
2341 171 191
2342 172 191
2343 173 191
2344 174 191
2345 175 191
2346 176 191
2347 177 191
2348 178 191
2349 179 191
2350 180 191
2351 181 191
2352 182 191
2353 183 191
2354 184 191
2355 185 191
2356 186 191
2357 187 191
2358 188 191
2359 189 191
2360 190 191